benchmarks_vrp/CMT5/fixed_c_size/CMT5_5.vrp
NAME: CMT5_5
TYPE: CVRP
COMMENT: 1291.29 - Cluster Nr.5
DIMENSION: 15
CAPACITY: 200
EDGE_WEIGHT_TYPE: EUC_2D
NODE_COORD_TYPE: TWOD_COORDS
NODE_COORD_SECTION: 
14 31 67
5 31 76
12 31 62
15 30 60
4 30 60
13 15 77
2 35 69
10 26 59
7 20 65
8 27 68
3 37 69
6 35 35
1 40 66
9 27 69
11 24 58
DEPOT_SECTION: 
6
-1
DEMAND_SECTION: 
9 10
3 11
8 7
1 26
14 3
15 16
10 29
11 19
13 9
7 12
5 25
2 23
6 0
12 23
4 16
EOF
