benchmarks_vrp/CMT5/fixed_c_size/CMT5_5.tour
NAME: CMT5_5 solution
TYPE: TOUR
TOUR_SECTION:
6 4 15 12 14 9 8 7 13 5 2 3 1 -1
6 10 11 -1
-1
EOF